(declare-fun temp13802_1 () (_ BitVec 64))
(declare-fun var985537 () (_ BitVec 64))
(declare-fun var985545 () (_ BitVec 64))
(declare-fun temp13802_2 () (_ BitVec 64))
(declare-fun var66507 () (_ BitVec 64))
(declare-fun temp13802_3 () (_ BitVec 64))
(declare-fun var1247681 () (_ BitVec 64))
(declare-fun var1247689 () (_ BitVec 64))
(declare-fun temp13802_4 () (_ BitVec 64))
(declare-fun var1640897 () (_ BitVec 64))
(declare-fun var1640905 () (_ BitVec 64))
(declare-fun temp13802_5 () (_ BitVec 64))
(declare-fun var2230721 () (_ BitVec 64))
(declare-fun var2230729 () (_ BitVec 64))
(declare-fun temp13802_6 () (_ BitVec 64))
(declare-fun var2820545 () (_ BitVec 64))
(declare-fun var2820553 () (_ BitVec 64))
(declare-fun temp13802_7 () (_ BitVec 64))
(declare-fun var3410369 () (_ BitVec 64))
(declare-fun var3410377 () (_ BitVec 64))
(declare-fun temp13802_8 () (_ BitVec 64))
(declare-fun ARGNAME_training_NAMEEND () (_ BitVec 64))
(declare-fun temp13802_9 () (_ BitVec 64))
(declare-fun ARGNAME_input_NAMEEND_DIM () (_ BitVec 64))
(declare-fun var68982 () (_ BitVec 64))
(declare-fun temp13802_10 () (_ BitVec 64))
(declare-fun temp13802_11 () (_ BitVec 64))
(declare-fun temp13802_12 () (_ BitVec 64))
(declare-fun ARGNAME_input_NAMEEND_DIMSIZE
             ()
             (Array (_ BitVec 64) (_ BitVec 64)))
(declare-fun temp13802_13 () (_ BitVec 64))
(declare-fun temp13802_14 () (_ BitVec 64))
(declare-fun temp13802_15 () (_ BitVec 64))
(declare-fun temp13802_16 () (_ BitVec 64))
(declare-fun temp13802_17 () (_ BitVec 64))
(declare-fun temp13802_18 () (_ BitVec 64))
(declare-fun temp13802_19 () (_ BitVec 64))
(declare-fun temp13802_20 () (_ BitVec 64))
(declare-fun temp13802_21 () (_ BitVec 64))
(declare-fun temp13802_22 () (_ BitVec 64))
(declare-fun temp13802_23 () (_ BitVec 64))
(declare-fun temp13802_24 () (_ BitVec 64))
(declare-fun temp13802_25 () (_ BitVec 64))
(declare-fun temp13802_26 () (_ BitVec 64))
(declare-fun temp13802_27 () (_ BitVec 64))
(declare-fun temp13802_28 () (_ BitVec 64))
(declare-fun temp13802_29 () (_ BitVec 64))
(declare-fun temp13802_30 () (_ BitVec 64))
(declare-fun temp13802_31 () (_ BitVec 64))
(declare-fun temp13802_32 () (_ BitVec 64))
(declare-fun temp13802_33 () (_ BitVec 64))
(declare-fun temp13802_34 () (_ BitVec 64))
(declare-fun temp13802_35 () (_ BitVec 64))
(declare-fun var69034 () (_ BitVec 64))
(declare-fun temp13802_36 () (_ BitVec 64))
(declare-fun temp13802_38 () (_ BitVec 64))
(declare-fun temp13802_37 () (_ BitVec 64))
(declare-fun temp13802_39 () (_ BitVec 64))
(declare-fun var69376 () (_ BitVec 64))
(declare-fun temp13802_40 () (_ BitVec 64))
(declare-fun temp13802_41 () (_ BitVec 64))
(declare-fun var69399 () (_ BitVec 64))
(declare-fun temp13802_43 () (_ BitVec 64))
(declare-fun temp13802_42 () (_ BitVec 64))
(assert (= temp13802_1 #x0000000000000002))
(assert (= var985537 temp13802_1))
(assert (= var985545 var985537))
(assert (= temp13802_2 #x0000000000000001))
(assert (= var66507 temp13802_2))
(assert (= temp13802_3 #x0000000000000002))
(assert (= var1247681 temp13802_3))
(assert (= var1247689 var1247681))
(assert (= temp13802_4 #x0000000000000002))
(assert (= var1640897 temp13802_4))
(assert (= var1640905 var1640897))
(assert (= temp13802_5 #x0000000000000002))
(assert (= var2230721 temp13802_5))
(assert (= var2230729 var2230721))
(assert (= temp13802_6 #x0000000000000002))
(assert (= var2820545 temp13802_6))
(assert (= var2820553 var2820545))
(assert (= temp13802_7 #x0000000000000002))
(assert (= var3410369 temp13802_7))
(assert (= var3410377 var3410369))
(assert (= temp13802_8 #x0000000000000001))
(assert (= ARGNAME_training_NAMEEND temp13802_8))
(assert (= temp13802_9 #x0000000000000002))
(assert (= var68982
   (ite (bvsgt ARGNAME_input_NAMEEND_DIM temp13802_9)
        #x0000000000000001
        #x0000000000000000)))
(assert (= temp13802_10 #x0000000000000001))
(assert (= var68982 temp13802_10))
(assert (= temp13802_11 #x0000000000000000))
(assert (= temp13802_12 temp13802_11))
(assert (= temp13802_13 (select ARGNAME_input_NAMEEND_DIMSIZE temp13802_12)))
(assert (= temp13802_14 #x0000000000000001))
(assert (= temp13802_15 temp13802_14))
(assert (= temp13802_16 (select ARGNAME_input_NAMEEND_DIMSIZE temp13802_15)))
(assert (= temp13802_17 #x0000000000000002))
(assert (= temp13802_18 temp13802_17))
(assert (= temp13802_19 (select ARGNAME_input_NAMEEND_DIMSIZE temp13802_18)))
(assert (= temp13802_20 #x0000000000000003))
(assert (= temp13802_21 temp13802_20))
(assert (= temp13802_22 (select ARGNAME_input_NAMEEND_DIMSIZE temp13802_21)))
(assert (= temp13802_23 #x0000000000000004))
(assert (= temp13802_24 temp13802_23))
(assert (= temp13802_25 (select ARGNAME_input_NAMEEND_DIMSIZE temp13802_24)))
(assert (= temp13802_26 #x0000000000000005))
(assert (= temp13802_27 temp13802_26))
(assert (= temp13802_28 (select ARGNAME_input_NAMEEND_DIMSIZE temp13802_27)))
(assert (= temp13802_29 #x0000000000000000))
(assert (= temp13802_30 temp13802_29))
(assert (= temp13802_31 (select ARGNAME_input_NAMEEND_DIMSIZE temp13802_30)))
(assert (bvsgt ARGNAME_input_NAMEEND_DIM temp13802_29))
(assert (bvsge temp13802_29 (bvneg ARGNAME_input_NAMEEND_DIM)))
(assert (= temp13802_32 #x0000000000000000))
(assert (= temp13802_33 temp13802_32))
(assert (= temp13802_34 (select ARGNAME_input_NAMEEND_DIMSIZE temp13802_33)))
(assert (bvsgt ARGNAME_input_NAMEEND_DIM temp13802_32))
(assert (bvsge temp13802_32 (bvneg ARGNAME_input_NAMEEND_DIM)))
(assert (= temp13802_35 #x0000000000000001))
(assert (= var69034 temp13802_35))
(assert (= temp13802_36 #x0000000000000001))
(assert (= var69034 temp13802_36))
(assert (= temp13802_38 #x0000000000000000))
(assert (= temp13802_37 temp13802_38))
(assert (= temp13802_39 #x0000000000000006))
(assert (= var69376
   (ite (bvslt ARGNAME_input_NAMEEND_DIM temp13802_39)
        #x0000000000000001
        #x0000000000000000)))
(assert (= temp13802_40 #x0000000000000001))
(assert (= var69376 temp13802_40))
(assert (= temp13802_41 #x0000000000000001))
(assert (= var69399 (bvxor ARGNAME_training_NAMEEND temp13802_41)))
(assert (= temp13802_43 #x0000000000000002))
(assert (= temp13802_42 temp13802_43))
(model-add temp13802_1 () (_ BitVec 64) #x0000000000000002)
(model-add var985537 () (_ BitVec 64) #x0000000000000002)
(model-add var985545 () (_ BitVec 64) #x0000000000000002)
(model-add temp13802_2 () (_ BitVec 64) #x0000000000000001)
(model-add var66507 () (_ BitVec 64) #x0000000000000001)
(model-add temp13802_3 () (_ BitVec 64) #x0000000000000002)
(model-add var1247681 () (_ BitVec 64) #x0000000000000002)
(model-add var1247689 () (_ BitVec 64) #x0000000000000002)
(model-add temp13802_4 () (_ BitVec 64) #x0000000000000002)
(model-add var1640897 () (_ BitVec 64) #x0000000000000002)
(model-add var1640905 () (_ BitVec 64) #x0000000000000002)
(model-add temp13802_5 () (_ BitVec 64) #x0000000000000002)
(model-add var2230721 () (_ BitVec 64) #x0000000000000002)
(model-add var2230729 () (_ BitVec 64) #x0000000000000002)
(model-add temp13802_6 () (_ BitVec 64) #x0000000000000002)
(model-add var2820545 () (_ BitVec 64) #x0000000000000002)
(model-add var2820553 () (_ BitVec 64) #x0000000000000002)
(model-add temp13802_7 () (_ BitVec 64) #x0000000000000002)
(model-add var3410369 () (_ BitVec 64) #x0000000000000002)
(model-add var3410377 () (_ BitVec 64) #x0000000000000002)
(model-add temp13802_8 () (_ BitVec 64) #x0000000000000001)
(model-add ARGNAME_training_NAMEEND () (_ BitVec 64) #x0000000000000001)


















